c This is a random SAT instance with 10 variables and 20 clauses
p cnf 10 20
-6 -1 1 -2 -3 0
1 0
7 3 1 -7 4 6 10 -3 5 -10 0
7 1 4 -9 -1 -3 10 -4 0
-1 -2 -5 1 0
-9 6 0
-10 3 -9 -4 0
-4 -5 -8 4 1 0
9 -7 -3 -4 -1 -8 3 -6 0
0
-7 -1 -4 7 4 0
1 8 7 -5 0
5 7 10 -5 2 3 9 0
1 -6 9 6 8 -1 5 0
3 -2 8 5 1 -6 0
6 7 3 1 -6 8 0
9 -6 6 10 -8 -4 8 0
9 0
-7 -9 -8 -6 -5 1 -1 0
-8 -3 -7 0